* This file was automatically generated by Zimpl
* set posters:={<254,36>,<36,254>};
* set anchoMuro := {read "anchos.txt" as "<1n>"};
* set altoMuro := {read "altos.txt" as "<1n>"};
* set posibilidades := anchoMuro cross altoMuro cross posters;
* var x[<i,j,k,m> in posibilidades] binary;
* maximize segmentosInsertados: sum<i,j,k,m> in posibilidades : x[i,j,k,m] * (k) * (m);
* subto noSuperposicion: forall<i,j,v,w> in posibilidades:         forall<k,m,y,z> in posibilidades:         if (i!=k and v!=y)
*  or (i==k and v!=y) or (i!=k and v==y) or (j!=m and w!=z) or (j==m and w!=z) or (j!=m and w==z)          then if (i+v>k and i
* <k+y and j+w>m and j<m+z)            then (x[i,j,v,w]+x[k,m,y,z])<= 1             end           end;
* subto noSobrepasarAncho: forall<i,j,k,m> in posibilidades:          (i+k) * x[i,j,k,m] <= card(anchoMuro);
* subto noSobrepasarAlto: forall<i,j,k,m> in posibilidades:          (j+m) * x[i,j,k,m] <= card(altoMuro);
NAME          cuttingS
ROWS
 N  OBJECTIV          
 L  noSupe@0          
 L  noSupe@1          
 L  noSupe@2          
 L  noSupe@3          
 L  noSupe@4          
 L  noSupe@5          
 L  noSupe@6          
 L  noSupe@7          
 L  noSupe@8          
 L  noSupe@9          
 L  noSupe@a          
 L  noSupe@b          
 L  noSupe@c          
 L  noSupe@d          
 L  noSupe@e          
 L  noSupe@f          
 L  noSup@10          
 L  noSup@11          
 L  noSup@12          
 L  noSup@13          
 L  noSup@14          
 L  noSup@15          
 L  noSup@16          
 L  noSup@17          
 L  noSup@18          
 L  noSup@19          
 L  noSup@1a          
 L  noSup@1b          
 L  noSup@1c          
 L  noSup@1d          
 L  noSup@1e          
 L  noSup@1f          
 L  noSup@20          
 L  noSup@21          
 L  noSup@22          
 L  noSup@23          
 L  noSup@24          
 L  noSup@25          
 L  noSup@26          
 L  noSup@27          
 L  noSup@28          
 L  noSup@29          
 L  noSup@2a          
 L  noSup@2b          
 L  noSup@2c          
 L  noSup@2d          
 L  noSup@2e          
 L  noSup@2f          
 L  noSup@30          
 L  noSup@31          
 L  noSup@32          
 L  noSup@33          
 L  noSup@34          
 L  noSup@35          
 L  noSup@36          
 L  noSup@37          
 L  noSup@38          
 L  noSup@39          
 L  noSup@3a          
 L  noSup@3b          
 L  noSup@3c          
 L  noSup@3d          
 L  noSup@3e          
 L  noSup@3f          
 L  noSup@40          
 L  noSup@41          
 L  noSup@42          
 L  noSup@43          
 L  noSup@44          
 L  noSup@45          
 L  noSup@46          
 L  noSup@47          
 L  noSup@48          
 L  noSup@49          
 L  noSup@4a          
 L  noSup@4b          
 L  noSup@4c          
 L  noSup@4d          
 L  noSup@4e          
 L  noSup@4f          
 L  noSup@50          
 L  noSup@51          
 L  noSup@52          
 L  noSup@53          
 L  noSup@54          
 L  noSup@55          
 L  noSup@56          
 L  noSup@57          
 L  noSup@58          
 L  noSup@59          
 L  noSup@5a          
 L  noSup@5b          
 L  noSup@5c          
 L  noSup@5d          
 L  noSup@5e          
 L  noSup@5f          
 L  noSup@60          
 L  noSup@61          
 L  noSup@62          
 L  noSup@63          
 L  noSup@64          
 L  noSup@65          
 L  noSup@66          
 L  noSup@67          
 L  noSup@68          
 L  noSup@69          
 L  noSup@6a          
 L  noSup@6b          
 L  noSup@6c          
 L  noSup@6d          
 L  noSup@6e          
 L  noSup@6f          
 L  noSup@70          
 L  noSup@71          
 L  noSup@72          
 L  noSup@73          
 L  noSup@74          
 L  noSup@75          
 L  noSup@76          
 L  noSup@77          
 L  noSup@78          
 L  noSup@79          
 L  noSup@7a          
 L  noSup@7b          
 L  noSup@7c          
 L  noSup@7d          
 L  noSup@7e          
 L  noSup@7f          
 L  noSup@80          
 L  noSup@81          
 L  noSup@82          
 L  noSup@83          
 L  noSup@84          
 L  noSup@85          
 L  noSup@86          
 L  noSup@87          
 L  noSup@88          
 L  noSup@89          
 L  noSup@8a          
 L  noSup@8b          
 L  noSup@8c          
 L  noSup@8d          
 L  noSup@8e          
 L  noSup@8f          
 L  noSob@90          
 L  noSob@91          
 L  noSob@92          
 L  noSob@93          
 L  noSob@94          
 L  noSob@95          
 L  noSob@96          
 L  noSob@97          
 L  noSob@98          
 L  noSob@99          
 L  noSob@9a          
 L  noSob@9b          
 L  noSob@9c          
 L  noSob@9d          
 L  noSob@9e          
 L  noSob@9f          
 L  noSob@a0          
 L  noSob@a1          
 L  noSob@a2          
 L  noSob@a3          
 L  noSob@a4          
 L  noSob@a5          
 L  noSob@a6          
 L  noSob@a7          
 L  noSob@a8          
 L  noSob@a9          
 L  noSob@aa          
 L  noSob@ab          
 L  noSob@ac          
 L  noSob@ad          
 L  noSob@ae          
 L  noSob@af          
 L  noSob@b0          
 L  noSob@b1          
 L  noSob@b2          
 L  noSob@b3          
 L  noSob@b4          
 L  noSob@b5          
 L  noSob@b6          
 L  noSob@b7          
 L  noSob@b8          
 L  noSob@b9          
 L  noSob@ba          
 L  noSob@bb          
 L  noSob@bc          
 L  noSob@bd          
 L  noSob@be          
 L  noSob@bf          
COLUMNS
    MARK0000  'MARKER'                 'INTORG'
    x#0#0#@0  OBJECTIV         -9144
    x#0#0#@0  noSob@a8            36
    x#0#0#@0  noSob@90           254
    x#0#0#@0  noSup@7e             1
    x#0#0#@0  noSup@78             1
    x#0#0#@0  noSup@67             1
    x#0#0#@0  noSup@60             1
    x#0#0#@0  noSup@50             1
    x#0#0#@0  noSup@48             1
    x#0#0#@0  noSup@39             1
    x#0#0#@0  noSup@30             1
    x#0#0#@0  noSup@22             1
    x#0#0#@0  noSup@18             1
    x#0#0#@0  noSupe@b             1
    x#0#0#@0  noSupe@a             1
    x#0#0#@0  noSupe@9             1
    x#0#0#@0  noSupe@8             1
    x#0#0#@0  noSupe@7             1
    x#0#0#@0  noSupe@6             1
    x#0#0#@0  noSupe@5             1
    x#0#0#@0  noSupe@4             1
    x#0#0#@0  noSupe@3             1
    x#0#0#@0  noSupe@2             1
    x#0#0#@0  noSupe@1             1
    x#0#0#@0  noSupe@0             1
    x#0#0#@1  OBJECTIV         -9144
    x#0#0#@1  noSob@a9           254
    x#0#0#@1  noSob@91            36
    x#0#0#@1  noSupe@b             1
    x#0#0#@1  noSupe@0             1
    x#0#25@2  OBJECTIV         -9144
    x#0#25@2  noSob@aa           290
    x#0#25@2  noSob@92           254
    x#0#25@2  noSup@8a             1
    x#0#25@2  noSup@84             1
    x#0#25@2  noSup@73             1
    x#0#25@2  noSup@6c             1
    x#0#25@2  noSup@5c             1
    x#0#25@2  noSup@54             1
    x#0#25@2  noSup@45             1
    x#0#25@2  noSup@3c             1
    x#0#25@2  noSup@2e             1
    x#0#25@2  noSup@24             1
    x#0#25@2  noSup@17             1
    x#0#25@2  noSup@16             1
    x#0#25@2  noSup@15             1
    x#0#25@2  noSup@14             1
    x#0#25@2  noSup@13             1
    x#0#25@2  noSup@12             1
    x#0#25@2  noSup@11             1
    x#0#25@2  noSup@10             1
    x#0#25@2  noSupe@f             1
    x#0#25@2  noSupe@e             1
    x#0#25@2  noSupe@d             1
    x#0#25@2  noSupe@c             1
    x#0#25@3  OBJECTIV         -9144
    x#0#25@3  noSob@ab           508
    x#0#25@3  noSob@93            36
    x#0#25@3  noSup@17             1
    x#0#25@3  noSupe@c             1
    x#36#0@4  OBJECTIV         -9144
    x#36#0@4  noSob@ac            36
    x#36#0@4  noSob@94           290
    x#36#0@4  noSup@7f             1
    x#36#0@4  noSup@79             1
    x#36#0@4  noSup@68             1
    x#36#0@4  noSup@61             1
    x#36#0@4  noSup@51             1
    x#36#0@4  noSup@49             1
    x#36#0@4  noSup@3a             1
    x#36#0@4  noSup@31             1
    x#36#0@4  noSup@23             1
    x#36#0@4  noSup@21             1
    x#36#0@4  noSup@20             1
    x#36#0@4  noSup@1f             1
    x#36#0@4  noSup@1e             1
    x#36#0@4  noSup@1d             1
    x#36#0@4  noSup@1c             1
    x#36#0@4  noSup@1b             1
    x#36#0@4  noSup@1a             1
    x#36#0@4  noSup@19             1
    x#36#0@4  noSup@18             1
    x#36#0@4  noSupe@1             1
    x#36#0@5  OBJECTIV         -9144
    x#36#0@5  noSob@ad           254
    x#36#0@5  noSob@95            72
    x#36#0@5  noSup@23             1
    x#36#0@5  noSup@22             1
    x#36#0@5  noSup@19             1
    x#36#0@5  noSupe@2             1
    x#36#2@6  OBJECTIV         -9144
    x#36#2@6  noSob@ae           290
    x#36#2@6  noSob@96           290
    x#36#2@6  noSup@8b             1
    x#36#2@6  noSup@85             1
    x#36#2@6  noSup@74             1
    x#36#2@6  noSup@6d             1
    x#36#2@6  noSup@5d             1
    x#36#2@6  noSup@55             1
    x#36#2@6  noSup@46             1
    x#36#2@6  noSup@3d             1
    x#36#2@6  noSup@2f             1
    x#36#2@6  noSup@2d             1
    x#36#2@6  noSup@2c             1
    x#36#2@6  noSup@2b             1
    x#36#2@6  noSup@2a             1
    x#36#2@6  noSup@29             1
    x#36#2@6  noSup@28             1
    x#36#2@6  noSup@27             1
    x#36#2@6  noSup@26             1
    x#36#2@6  noSup@25             1
    x#36#2@6  noSup@24             1
    x#36#2@6  noSupe@d             1
    x#36#2@7  OBJECTIV         -9144
    x#36#2@7  noSob@af           508
    x#36#2@7  noSob@97            72
    x#36#2@7  noSup@2f             1
    x#36#2@7  noSup@2e             1
    x#36#2@7  noSup@25             1
    x#36#2@7  noSupe@e             1
    x#72#0@8  OBJECTIV         -9144
    x#72#0@8  noSob@b0            36
    x#72#0@8  noSob@98           326
    x#72#0@8  noSup@80             1
    x#72#0@8  noSup@7a             1
    x#72#0@8  noSup@69             1
    x#72#0@8  noSup@62             1
    x#72#0@8  noSup@52             1
    x#72#0@8  noSup@4a             1
    x#72#0@8  noSup@3b             1
    x#72#0@8  noSup@38             1
    x#72#0@8  noSup@37             1
    x#72#0@8  noSup@36             1
    x#72#0@8  noSup@35             1
    x#72#0@8  noSup@34             1
    x#72#0@8  noSup@33             1
    x#72#0@8  noSup@32             1
    x#72#0@8  noSup@31             1
    x#72#0@8  noSup@30             1
    x#72#0@8  noSup@1a             1
    x#72#0@8  noSupe@3             1
    x#72#0@9  OBJECTIV         -9144
    x#72#0@9  noSob@b1           254
    x#72#0@9  noSob@99           108
    x#72#0@9  noSup@3b             1
    x#72#0@9  noSup@3a             1
    x#72#0@9  noSup@39             1
    x#72#0@9  noSup@32             1
    x#72#0@9  noSup@1b             1
    x#72#0@9  noSupe@4             1
    x#72#2@a  OBJECTIV         -9144
    x#72#2@a  noSob@b2           290
    x#72#2@a  noSob@9a           326
    x#72#2@a  noSup@8c             1
    x#72#2@a  noSup@86             1
    x#72#2@a  noSup@75             1
    x#72#2@a  noSup@6e             1
    x#72#2@a  noSup@5e             1
    x#72#2@a  noSup@56             1
    x#72#2@a  noSup@47             1
    x#72#2@a  noSup@44             1
    x#72#2@a  noSup@43             1
    x#72#2@a  noSup@42             1
    x#72#2@a  noSup@41             1
    x#72#2@a  noSup@40             1
    x#72#2@a  noSup@3f             1
    x#72#2@a  noSup@3e             1
    x#72#2@a  noSup@3d             1
    x#72#2@a  noSup@3c             1
    x#72#2@a  noSup@26             1
    x#72#2@a  noSupe@f             1
    x#72#2@b  OBJECTIV         -9144
    x#72#2@b  noSob@b3           508
    x#72#2@b  noSob@9b           108
    x#72#2@b  noSup@47             1
    x#72#2@b  noSup@46             1
    x#72#2@b  noSup@45             1
    x#72#2@b  noSup@3e             1
    x#72#2@b  noSup@27             1
    x#72#2@b  noSup@10             1
    x#108#@c  OBJECTIV         -9144
    x#108#@c  noSob@b4            36
    x#108#@c  noSob@9c           362
    x#108#@c  noSup@81             1
    x#108#@c  noSup@7b             1
    x#108#@c  noSup@6a             1
    x#108#@c  noSup@63             1
    x#108#@c  noSup@53             1
    x#108#@c  noSup@4f             1
    x#108#@c  noSup@4e             1
    x#108#@c  noSup@4d             1
    x#108#@c  noSup@4c             1
    x#108#@c  noSup@4b             1
    x#108#@c  noSup@4a             1
    x#108#@c  noSup@49             1
    x#108#@c  noSup@48             1
    x#108#@c  noSup@33             1
    x#108#@c  noSup@1c             1
    x#108#@c  noSupe@5             1
    x#108#@d  OBJECTIV         -9144
    x#108#@d  noSob@b5           254
    x#108#@d  noSob@9d           144
    x#108#@d  noSup@53             1
    x#108#@d  noSup@52             1
    x#108#@d  noSup@51             1
    x#108#@d  noSup@50             1
    x#108#@d  noSup@4b             1
    x#108#@d  noSup@34             1
    x#108#@d  noSup@1d             1
    x#108#@d  noSupe@6             1
    x#108#@e  OBJECTIV         -9144
    x#108#@e  noSob@b6           290
    x#108#@e  noSob@9e           362
    x#108#@e  noSup@8d             1
    x#108#@e  noSup@87             1
    x#108#@e  noSup@76             1
    x#108#@e  noSup@6f             1
    x#108#@e  noSup@5f             1
    x#108#@e  noSup@5b             1
    x#108#@e  noSup@5a             1
    x#108#@e  noSup@59             1
    x#108#@e  noSup@58             1
    x#108#@e  noSup@57             1
    x#108#@e  noSup@56             1
    x#108#@e  noSup@55             1
    x#108#@e  noSup@54             1
    x#108#@e  noSup@3f             1
    x#108#@e  noSup@28             1
    x#108#@e  noSup@11             1
    x#108#@f  OBJECTIV         -9144
    x#108#@f  noSob@b7           508
    x#108#@f  noSob@9f           144
    x#108#@f  noSup@5f             1
    x#108#@f  noSup@5e             1
    x#108#@f  noSup@5d             1
    x#108#@f  noSup@5c             1
    x#108#@f  noSup@57             1
    x#108#@f  noSup@40             1
    x#108#@f  noSup@29             1
    x#108#@f  noSup@12             1
    x#144@10  OBJECTIV         -9144
    x#144@10  noSob@b8            36
    x#144@10  noSob@a0           398
    x#144@10  noSup@82             1
    x#144@10  noSup@7c             1
    x#144@10  noSup@6b             1
    x#144@10  noSup@66             1
    x#144@10  noSup@65             1
    x#144@10  noSup@64             1
    x#144@10  noSup@63             1
    x#144@10  noSup@62             1
    x#144@10  noSup@61             1
    x#144@10  noSup@60             1
    x#144@10  noSup@4c             1
    x#144@10  noSup@35             1
    x#144@10  noSup@1e             1
    x#144@10  noSupe@7             1
    x#144@11  OBJECTIV         -9144
    x#144@11  noSob@b9           254
    x#144@11  noSob@a1           180
    x#144@11  noSup@6b             1
    x#144@11  noSup@6a             1
    x#144@11  noSup@69             1
    x#144@11  noSup@68             1
    x#144@11  noSup@67             1
    x#144@11  noSup@64             1
    x#144@11  noSup@4d             1
    x#144@11  noSup@36             1
    x#144@11  noSup@1f             1
    x#144@11  noSupe@8             1
    x#144@12  OBJECTIV         -9144
    x#144@12  noSob@ba           290
    x#144@12  noSob@a2           398
    x#144@12  noSup@8e             1
    x#144@12  noSup@88             1
    x#144@12  noSup@77             1
    x#144@12  noSup@72             1
    x#144@12  noSup@71             1
    x#144@12  noSup@70             1
    x#144@12  noSup@6f             1
    x#144@12  noSup@6e             1
    x#144@12  noSup@6d             1
    x#144@12  noSup@6c             1
    x#144@12  noSup@58             1
    x#144@12  noSup@41             1
    x#144@12  noSup@2a             1
    x#144@12  noSup@13             1
    x#144@13  OBJECTIV         -9144
    x#144@13  noSob@bb           508
    x#144@13  noSob@a3           180
    x#144@13  noSup@77             1
    x#144@13  noSup@76             1
    x#144@13  noSup@75             1
    x#144@13  noSup@74             1
    x#144@13  noSup@73             1
    x#144@13  noSup@70             1
    x#144@13  noSup@59             1
    x#144@13  noSup@42             1
    x#144@13  noSup@2b             1
    x#144@13  noSup@14             1
    x#180@14  OBJECTIV         -9144
    x#180@14  noSob@bc            36
    x#180@14  noSob@a4           434
    x#180@14  noSup@83             1
    x#180@14  noSup@7d             1
    x#180@14  noSup@7c             1
    x#180@14  noSup@7b             1
    x#180@14  noSup@7a             1
    x#180@14  noSup@79             1
    x#180@14  noSup@78             1
    x#180@14  noSup@65             1
    x#180@14  noSup@4e             1
    x#180@14  noSup@37             1
    x#180@14  noSup@20             1
    x#180@14  noSupe@9             1
    x#180@15  OBJECTIV         -9144
    x#180@15  noSob@bd           254
    x#180@15  noSob@a5           216
    x#180@15  noSup@83             1
    x#180@15  noSup@82             1
    x#180@15  noSup@81             1
    x#180@15  noSup@80             1
    x#180@15  noSup@7f             1
    x#180@15  noSup@7e             1
    x#180@15  noSup@7d             1
    x#180@15  noSup@66             1
    x#180@15  noSup@4f             1
    x#180@15  noSup@38             1
    x#180@15  noSup@21             1
    x#180@15  noSupe@a             1
    x#180@16  OBJECTIV         -9144
    x#180@16  noSob@be           290
    x#180@16  noSob@a6           434
    x#180@16  noSup@8f             1
    x#180@16  noSup@89             1
    x#180@16  noSup@88             1
    x#180@16  noSup@87             1
    x#180@16  noSup@86             1
    x#180@16  noSup@85             1
    x#180@16  noSup@84             1
    x#180@16  noSup@71             1
    x#180@16  noSup@5a             1
    x#180@16  noSup@43             1
    x#180@16  noSup@2c             1
    x#180@16  noSup@15             1
    x#180@17  OBJECTIV         -9144
    x#180@17  noSob@bf           508
    x#180@17  noSob@a7           216
    x#180@17  noSup@8f             1
    x#180@17  noSup@8e             1
    x#180@17  noSup@8d             1
    x#180@17  noSup@8c             1
    x#180@17  noSup@8b             1
    x#180@17  noSup@8a             1
    x#180@17  noSup@89             1
    x#180@17  noSup@72             1
    x#180@17  noSup@5b             1
    x#180@17  noSup@44             1
    x#180@17  noSup@2d             1
    x#180@17  noSup@16             1
    MARK0001  'MARKER'                 'INTEND'
RHS
    RHS       noSupe@0             1
    RHS       noSupe@1             1
    RHS       noSupe@2             1
    RHS       noSupe@3             1
    RHS       noSupe@4             1
    RHS       noSupe@5             1
    RHS       noSupe@6             1
    RHS       noSupe@7             1
    RHS       noSupe@8             1
    RHS       noSupe@9             1
    RHS       noSupe@a             1
    RHS       noSupe@b             1
    RHS       noSupe@c             1
    RHS       noSupe@d             1
    RHS       noSupe@e             1
    RHS       noSupe@f             1
    RHS       noSup@10             1
    RHS       noSup@11             1
    RHS       noSup@12             1
    RHS       noSup@13             1
    RHS       noSup@14             1
    RHS       noSup@15             1
    RHS       noSup@16             1
    RHS       noSup@17             1
    RHS       noSup@18             1
    RHS       noSup@19             1
    RHS       noSup@1a             1
    RHS       noSup@1b             1
    RHS       noSup@1c             1
    RHS       noSup@1d             1
    RHS       noSup@1e             1
    RHS       noSup@1f             1
    RHS       noSup@20             1
    RHS       noSup@21             1
    RHS       noSup@22             1
    RHS       noSup@23             1
    RHS       noSup@24             1
    RHS       noSup@25             1
    RHS       noSup@26             1
    RHS       noSup@27             1
    RHS       noSup@28             1
    RHS       noSup@29             1
    RHS       noSup@2a             1
    RHS       noSup@2b             1
    RHS       noSup@2c             1
    RHS       noSup@2d             1
    RHS       noSup@2e             1
    RHS       noSup@2f             1
    RHS       noSup@30             1
    RHS       noSup@31             1
    RHS       noSup@32             1
    RHS       noSup@33             1
    RHS       noSup@34             1
    RHS       noSup@35             1
    RHS       noSup@36             1
    RHS       noSup@37             1
    RHS       noSup@38             1
    RHS       noSup@39             1
    RHS       noSup@3a             1
    RHS       noSup@3b             1
    RHS       noSup@3c             1
    RHS       noSup@3d             1
    RHS       noSup@3e             1
    RHS       noSup@3f             1
    RHS       noSup@40             1
    RHS       noSup@41             1
    RHS       noSup@42             1
    RHS       noSup@43             1
    RHS       noSup@44             1
    RHS       noSup@45             1
    RHS       noSup@46             1
    RHS       noSup@47             1
    RHS       noSup@48             1
    RHS       noSup@49             1
    RHS       noSup@4a             1
    RHS       noSup@4b             1
    RHS       noSup@4c             1
    RHS       noSup@4d             1
    RHS       noSup@4e             1
    RHS       noSup@4f             1
    RHS       noSup@50             1
    RHS       noSup@51             1
    RHS       noSup@52             1
    RHS       noSup@53             1
    RHS       noSup@54             1
    RHS       noSup@55             1
    RHS       noSup@56             1
    RHS       noSup@57             1
    RHS       noSup@58             1
    RHS       noSup@59             1
    RHS       noSup@5a             1
    RHS       noSup@5b             1
    RHS       noSup@5c             1
    RHS       noSup@5d             1
    RHS       noSup@5e             1
    RHS       noSup@5f             1
    RHS       noSup@60             1
    RHS       noSup@61             1
    RHS       noSup@62             1
    RHS       noSup@63             1
    RHS       noSup@64             1
    RHS       noSup@65             1
    RHS       noSup@66             1
    RHS       noSup@67             1
    RHS       noSup@68             1
    RHS       noSup@69             1
    RHS       noSup@6a             1
    RHS       noSup@6b             1
    RHS       noSup@6c             1
    RHS       noSup@6d             1
    RHS       noSup@6e             1
    RHS       noSup@6f             1
    RHS       noSup@70             1
    RHS       noSup@71             1
    RHS       noSup@72             1
    RHS       noSup@73             1
    RHS       noSup@74             1
    RHS       noSup@75             1
    RHS       noSup@76             1
    RHS       noSup@77             1
    RHS       noSup@78             1
    RHS       noSup@79             1
    RHS       noSup@7a             1
    RHS       noSup@7b             1
    RHS       noSup@7c             1
    RHS       noSup@7d             1
    RHS       noSup@7e             1
    RHS       noSup@7f             1
    RHS       noSup@80             1
    RHS       noSup@81             1
    RHS       noSup@82             1
    RHS       noSup@83             1
    RHS       noSup@84             1
    RHS       noSup@85             1
    RHS       noSup@86             1
    RHS       noSup@87             1
    RHS       noSup@88             1
    RHS       noSup@89             1
    RHS       noSup@8a             1
    RHS       noSup@8b             1
    RHS       noSup@8c             1
    RHS       noSup@8d             1
    RHS       noSup@8e             1
    RHS       noSup@8f             1
    RHS       noSob@90             6
    RHS       noSob@91             6
    RHS       noSob@92             6
    RHS       noSob@93             6
    RHS       noSob@94             6
    RHS       noSob@95             6
    RHS       noSob@96             6
    RHS       noSob@97             6
    RHS       noSob@98             6
    RHS       noSob@99             6
    RHS       noSob@9a             6
    RHS       noSob@9b             6
    RHS       noSob@9c             6
    RHS       noSob@9d             6
    RHS       noSob@9e             6
    RHS       noSob@9f             6
    RHS       noSob@a0             6
    RHS       noSob@a1             6
    RHS       noSob@a2             6
    RHS       noSob@a3             6
    RHS       noSob@a4             6
    RHS       noSob@a5             6
    RHS       noSob@a6             6
    RHS       noSob@a7             6
    RHS       noSob@a8             2
    RHS       noSob@a9             2
    RHS       noSob@aa             2
    RHS       noSob@ab             2
    RHS       noSob@ac             2
    RHS       noSob@ad             2
    RHS       noSob@ae             2
    RHS       noSob@af             2
    RHS       noSob@b0             2
    RHS       noSob@b1             2
    RHS       noSob@b2             2
    RHS       noSob@b3             2
    RHS       noSob@b4             2
    RHS       noSob@b5             2
    RHS       noSob@b6             2
    RHS       noSob@b7             2
    RHS       noSob@b8             2
    RHS       noSob@b9             2
    RHS       noSob@ba             2
    RHS       noSob@bb             2
    RHS       noSob@bc             2
    RHS       noSob@bd             2
    RHS       noSob@be             2
    RHS       noSob@bf             2
BOUNDS
 LO BOUND     x#0#0#@0             0
 UP BOUND     x#0#0#@0             1
 LO BOUND     x#0#0#@1             0
 UP BOUND     x#0#0#@1             1
 LO BOUND     x#0#25@2             0
 UP BOUND     x#0#25@2             1
 LO BOUND     x#0#25@3             0
 UP BOUND     x#0#25@3             1
 LO BOUND     x#36#0@4             0
 UP BOUND     x#36#0@4             1
 LO BOUND     x#36#0@5             0
 UP BOUND     x#36#0@5             1
 LO BOUND     x#36#2@6             0
 UP BOUND     x#36#2@6             1
 LO BOUND     x#36#2@7             0
 UP BOUND     x#36#2@7             1
 LO BOUND     x#72#0@8             0
 UP BOUND     x#72#0@8             1
 LO BOUND     x#72#0@9             0
 UP BOUND     x#72#0@9             1
 LO BOUND     x#72#2@a             0
 UP BOUND     x#72#2@a             1
 LO BOUND     x#72#2@b             0
 UP BOUND     x#72#2@b             1
 LO BOUND     x#108#@c             0
 UP BOUND     x#108#@c             1
 LO BOUND     x#108#@d             0
 UP BOUND     x#108#@d             1
 LO BOUND     x#108#@e             0
 UP BOUND     x#108#@e             1
 LO BOUND     x#108#@f             0
 UP BOUND     x#108#@f             1
 LO BOUND     x#144@10             0
 UP BOUND     x#144@10             1
 LO BOUND     x#144@11             0
 UP BOUND     x#144@11             1
 LO BOUND     x#144@12             0
 UP BOUND     x#144@12             1
 LO BOUND     x#144@13             0
 UP BOUND     x#144@13             1
 LO BOUND     x#180@14             0
 UP BOUND     x#180@14             1
 LO BOUND     x#180@15             0
 UP BOUND     x#180@15             1
 LO BOUND     x#180@16             0
 UP BOUND     x#180@16             1
 LO BOUND     x#180@17             0
 UP BOUND     x#180@17             1
ENDATA
